672,378
801,406
880,470
1051,286
1028,229
823,360
664,382
415,213
515,-107
488,140
261,406
494,501
751,503
1069,688
1108,623
1001,569
868,501
733,478
668,432
681,196
727,110
681,136
633,441
436,887
364,842
597,490
681,466
850,529
1108,545
975,555
625,761
321,766
704,554
653,415
773,121
765,-127
